; aiokafka :: corpus-study/repo_src/aiokafka/aiokafka/consumer/group_coordinator.py :: LOCK 'GroupCoordinator._coordinator_lookup_lock' :: structured encoding (verdict: unsat)
; Generated by snf-pipeline (encoder.py) -- run with any
; SMT-LIB2-compliant solver, e.g. `z3 aiokafka__corpus-study_repo_src_aiokafka_aiokafka_consumer_group_coordinator.py__GroupCoordinator._coordinator_lookup_lock__structured.smt2`
; benchmark generated from python API
(set-info :status unknown)
(declare-fun lorder_0 () Int)
(assert
 (>= lorder_0 1))
(assert
 (<= lorder_0 1))
(assert
 (and true))
(assert
 false)
(check-sat)
